c Sudoku solution
p cnf 729 0
117 0
151 0
165 0
193 0
312 0
371 0
388 0
395 0
425 0
546 0
587 0
611 0
622 0
637 0
674 0
685 0
555 0
696 0
724 0
743 0
766 0
789 0
886 0
923 0
827 0
873 0
221 0
483 0
981 0
731 0
947 0
845 0
861 0
441 0
591 0
968 0
752 0
994 0
854 0
959 0
284 0
182 0
242 0
329 0
344 0
134 0
126 0
333 0
179 0
276 0
297 0
148 0
269 0
253 0
367 0
356 0
513 0
414 0
436 0
564 0
462 0
457 0
572 0
916 0
819 0
528 0
539 0
649 0
658 0
663 0
975 0
892 0
715 0
932 0
838 0
218 0
235 0
777 0
798 0
478 0
499 0
